NAME : gr229.ant.tour 
TYPE: TOUR
COMMENT : m-MMAS-LKH gr229 (LENGTH 134616)
COMMENT : 
DIMENSION : 229 (134616)
TOUR_SECTION
148
147
146
145
144
143
142
139
140
141
152
153
154
151
155
150
157
156
159
160
161
162
164
165
173
163
172
174
175
176
199
198
197
187
196
195
194
192
193
191
190
189
188
49
47
48
46
184
50
186
185
183
182
178
180
181
179
177
168
167
169
170
171
133
134
135
136
137
138
132
131
130
129
128
127
126
125
166
124
108
109
110
111
114
117
113
116
120
123
122
121
119
118
115
112
106
107
105
104
97
98
99
96
95
37
36
35
34
38
33
30
27
26
15
14
13
12
16
17
18
20
21
22
23
24
56
57
83
82
81
87
84
25
85
86
89
88
80
79
90
91
92
93
94
100
101
102
103
74
75
76
77
78
73
72
70
71
69
68
67
63
66
65
64
62
61
60
59
58
54
55
53
52
51
19
11
10
9
8
7
6
5
4
3
2
1
28
29
31
32
39
40
41
42
45
44
43
224
225
226
229
228
227
218
217
219
220
216
215
214
213
208
207
206
209
210
211
203
202
221
222
223
200
201
158
204
212
205
149
-1
EOF